
Gurobi 10.0.3 (win64, gurobi_cl) logging started Sun Sep 14 02:41:18 2025

Set parameter Username
Set parameter LicenseID to value 2706839
Set parameter LogFile to value "gurobi.log"
Academic license - for non-commercial use only - expires 2026-09-10
Using license file C:\Users\thiago.assis\gurobi.lic
